
 102   30
  10   10   10   10   10   10   10   10   10   10   10   10   10   10   10   10   10   10   10   10   10   10   10   10   10   10   10   10   10   10

   0   0   0   0   0   0   0   0   0   0   0   0   0   0   0   0   0   0   0   0   0   0   0   0   0   0   0   0   0   0   0  23 2 3 4 5 6 7 8 10 11 12 13 14 15 16 17 18 20 21 24 27 34 39 41 
  10   0   0   0   0   0   0   0   1   2   0   0   0   0   0   0   0   0   0   0   0   1   0   0   0   0   0   0   0   0   0  12 100 68 67 57 55 50 49 47 38 36 23 19 
  10   0   0   0   0   0   0   0   0   0   0   0   0   0   0   0   0   0   0   0   0   0   0   0   0   0   0   6   0   0   0   7 101 52 51 48 46 33 9 
   5   0   0   0   3   0   2   0   0   0   0   0   0   0   0   0   0   0   0   0   1   0   0   0   1   0   0   0   0   0   0  15 100 99 62 61 57 55 53 52 49 48 45 43 37 30 29 
   9   0   0   1   0   0   0   0   0   0   0   0   0   1   0   0   0   0   2   0   0   0   0   0   0   0   0   0   0   0   0  14 100 99 97 75 62 54 50 47 45 43 32 31 29 25 
   5   0   0   0   0   0   0   0   0   0   4   0   3   0   0   0   0   0   0   0   0   6   0   0   0   1   0   0   0   0   0  11 100 99 67 66 62 50 49 48 35 30 23 
   5   0   2   0   0   0   0   0   6   5   0   0   0   0   0   0   1   0   0   0   0   0   0   0   0   0   0   3   0   0   0  12 100 99 98 68 62 61 60 55 51 29 28 22 
   9   0   0   0   0   0   0   0   0   0   0   0   4   0   0   0   0   0   0   0   0   0   0   1   0   0   0   0   0   0   0  14 93 91 88 75 74 73 66 61 59 53 52 42 36 26 
   5   0   0   0   7   0   0   2   0   0   0   0   0   0   0   0   0   0   5   0   0   0   1   0   0   0   0   0   0   0   0  11 99 75 62 61 55 53 44 43 40 29 28 
   9   0   0   0   0   0   0   0   0   0   0   0   0   0   0   0   0   0   0   0   0   0   0   0   0   0   0   0   0   0   1  13 101 99 74 73 66 61 60 58 57 53 45 40 28 
   7   0   6   0   0   0   0   0   0   0   0   1   0   0   0   0   0   0   0   2   7   0   0   0   0   0   0   0   0   0   0  10 75 73 67 62 51 50 49 47 32 30 
   8   0   0   0   0   0   0   7   0   0   0   0   0   0   0   0   0   0   0   6   6   0   0   0   0   0   0   0   0   2   0  18 100 99 97 94 74 72 70 67 66 62 61 60 54 53 51 50 49 43 
  10   0   0   0   0   1   0   0   0   0   0   0   0   0   0   0   0   0   0   0   0   0   0   9   4   0   1   0   0   0   0  13 100 74 73 70 67 66 64 61 55 54 53 44 30 
   1   0   9   0   7   0   0   0   0   0   0   0   0   0   0   0   6   2  10   0   0   0   0   0   0   0   0   0   0   0   0  15 99 95 74 73 72 70 66 64 62 60 59 58 53 48 35 
   2   0   0   0   0   0   0   5   5   0   0   0   9   0   0   0   0   0   0   7   0   0   0   0   0   0   0   0   0   0   0  19 99 97 95 93 91 90 75 74 73 72 71 70 66 64 61 60 59 58 48 
  10   0   0   0   0   0   3   0   0   0   0   0   0   0   0   0   0   0   0   7   0   0   0   0   0   0   0   0   0   0   0  12 98 95 86 84 72 71 60 59 58 54 53 28 
   4   0   0   6   0   0   0   0   0   4   0   0   0   0   0   0   0   0   0   0   5   0   0   0   0   0   0   4   0   0   0   8 98 74 71 60 58 44 43 28 
   1   0   0   0   0   0   0   0   0   0   0   0   0   0   0   0   0   0   0   0   0   0   0   0   0   0   0   0   0   0   0  14 98 96 94 90 89 88 72 71 70 60 58 48 44 43 
   2   0   0   0   0   7   0   0   0   0   6   0   0   0   0   0   0   0   0   0   5   0   0   0   8   0   8   0   0   0   0  16 101 99 98 94 93 90 83 75 70 66 61 60 56 54 51 48 
   9   0   0   0   0   5   0  10   0  10   0   0   0   0   0   0   0   0   5   0   0   9   6   0   0   0   0   7   0   0   0  14 100 98 97 93 90 72 70 64 63 61 56 54 48 45 
   2   0   0   0   0   0   0   0   0   0   0   0   0   8   0   0   0   0   0   0   0   0   0   0   0   0   0   0   3   0   0  15 101 99 96 94 90 87 86 72 71 70 69 65 58 54 47 
   4   0   0   0   0   0   0   0   0   0   6   0   0   0   0   0   0   0   0   0   0   0   7   0   0   0   7   0   0   6   5  16 97 96 95 93 86 81 75 73 72 70 66 65 64 58 54 53 
   8   0   0   0   0   0   6   0   0   0   0   0   0   0   0   0   0   0  10   0   0   0   0   0  10   5   0   0   0   0   0  13 95 94 89 88 84 74 72 70 61 60 58 53 43 
   8   0   0   0   0   0   0   0   0   0   0   0   0   0   1   0   6   0   0   0   0   7   0   0   0   0   0   0   0   0   0  16 99 97 93 92 91 89 86 74 73 70 67 64 60 58 56 50 
  10   0   0   0   0   0   0   0   0   0   0   0   0   0   0   0   0   0   0   0   0   0   0   9   0   0   0   0   0   0   0  17 94 92 91 89 86 85 84 81 73 72 71 70 65 64 60 58 53 
   5   0   0   0   0   0   0   0   7   0   0   0   0   0   8   1   0   0   0   0   0   0   0   0   0   0   0   0   0   0   9  12 100 98 94 90 89 72 71 67 64 60 58 48 
   5   6   0   0   0   0   7   0   0   0   0   0   0   0   0   0   0   0   0   0   0   0   0   0   0   0   0   0   0   0   7  13 98 97 96 95 94 93 92 90 88 83 74 70 48 
   4   0   0   7   0   0   0   0   0   0   0   0   0   0   0   0   0   0   6   7   0   0   5   0   0   0   0   0   8   0   0  17 97 96 94 93 92 90 89 87 85 81 80 79 78 70 65 64 63 
   3   0   0   0   0   0   4   0   0   0  10   5   0   0   0   0   0   0   0   0   0   0   0   0   0   0   6   0   0   0   6  15 95 94 91 90 89 88 87 86 83 81 80 72 70 66 58 
   1   0   0   0   0   0   2   0   0   0   0   0   0   0   0   0   0   0   0   6   0   8   0   0   0   0   0   0   0   0   0  14 94 93 90 87 86 84 83 82 81 72 71 65 60 58 
   1   0   0   0   0   0   0   0   0   0   5   0   7   0   0   0   8   0   0   0   0   0   0   0   0   0   0   0   5   0   0  13 92 91 89 87 86 84 81 74 73 71 65 64 60 
   8   0   0   0   0   0   0   0   0   0   0   0   0   0   0   0   0   5   0   0   0   0   0   0   4   0   0   0   0   0   0  11 95 93 92 89 84 74 71 70 64 61 52 
   2   0   0   0   0   0   0   0   0   0   0   0   0   0   0   0   0   0   0   0   0   0   0   8   0   0   0   0   0   0   0  11 98 96 92 88 87 86 83 74 70 58 55 
   7   0   0   0   0   0   5   0   0   0   0   0   0   0   0   0   0   0   0   0   0   5   0   0   0   0   0   0   0   0   0  11 97 94 91 90 86 73 70 69 64 63 56 
   3   5   0   0   5   4   0   0   5   0   0   0   0   0   0   9   0   0   0   0   0   0   0   0   0   0   0  10   0   0   0  18 98 97 96 93 92 91 89 87 86 85 84 83 81 80 79 78 76 65 
   8   0   0   0   0   0   0   6   0   0   0   0  10   0   0   8   7   0   0   7   0   6   0   4   7   0   0   0   0   0   0  16 101 97 96 95 92 90 89 85 84 83 80 79 72 70 69 63 
   2   0   0   0   0   0   0   0   0   0   0   0   0   0   0   0   5   0   0   0   0   0   6   0   0   0   0   0   0   0   0  13 101 95 93 90 88 87 84 80 79 71 70 63 54 
   3   0   0   0   6   9   9   4   7   0   0   0   0   0   0   0   8   0   0   0   0   0   4   0   0   0  10   0   6   0   0  11 98 93 92 89 86 83 74 72 66 63 60 
  10   0   0   0   8   0   0   0   0   0   0   0   0   0   0   0   0  10   0   7   0   0  10   0   0   0   0   0   0   8   0   7 98 94 90 89 85 64 48 
   9   0   0   0   0   5   0   0   0   0   0   0   0   0   9   3   0   0   6   4   0   6   0   0   0   0   0   5   4   0   0  13 100 98 97 95 91 88 87 85 81 80 78 76 67 
   4   0   0   0   0   0   0   0   7   0   0   0   0   0   0   0   0   0   0   0   0   0   9   0   0   0   8   0   0   0   0  12 96 93 89 87 85 83 81 80 77 71 70 69 
   7   0   4   0   0   9   0   0   0   0   0   0   0   8   0   0   7  10   0   0   0   0   0   0   0   0   0   0   0   0   5   7 97 94 90 86 70 60 58 
  10   0  10   3   6  10   0   0   0   0   0   0   0   0   8   0   0   3   0   0   0   0   0   0   0   0   0   0   0   0   0  10 92 91 86 85 82 81 78 73 64 63 
   8   0   0   0   0   0   0   0   7   6   0   0   0   0   0   0   6   3   0   6   0   0   0   0   0   0   0   0   0   0   0  10 97 95 93 84 83 81 80 77 76 69 
   6   0   0   0   7   0   0   0   0   0   0   0   0   0   0   0   0   0   0   6   0   0   0   0   0   0   0   3   0   0   0   8 91 83 82 81 79 78 71 65 
   4   0   9   0   0   0   0   0   0   0   0   0   0   0   0   0   0   0   0   0   0   0   5   0   0   0   0   0   0   0   0   6 95 86 83 81 71 58 
   6   0   9   0   0   0   0   0   0   0   0   0   0   4   0   0   0   0   5   0   7   0   0   0   0   0   0   0   0   0   0   8 95 93 84 81 80 79 76 64 
  10   0   0   4   0   0   0   0   0   6   0   0   0   6   0   0   0   0   0   0   0   0   5   0   0   0   0   0   0   0   9   8 87 86 82 81 80 79 76 69 
   6   0   0   0   0   0   0   0   0   0   0   0   0   0   0   0   0   0   0   9   0   0   0   0   0   0   0   0   0   7   0   8 95 90 88 83 80 79 77 76 
   8   0   0   0   3   0   0   0   0   0   0   0   0   0   0   0   0   0   0   0   0   0   3   0   0   0   0   0   0   0   0   6 98 84 81 77 76 69 
   5   5   0   0   0   0   0   0   0   0   0   0   0   0   0   0   0   0   0   4   0  10   0   0   0   0   0   0   5   0   0   5 91 81 80 79 63 
  10   0   0   0   9   0   9   0   0   0   0   0   0   0   0   0   0   0   0   0   0   0   0   9   0   0   0  10   0   0   8   5 85 82 79 78 63 
   3   0   3   0   0   0   0   0   0   0   0   0   0   0   0   0   0   7   8   0   0   0   0   5   4   0   0   3   0   0   0   6 90 87 80 79 78 77 
   8   6   0   0   0   0   0   0   0   0   0   0   0   0   0   0   0   0   0   0   0   0   0   0   0   0   0   3   0   0   0   6 92 91 89 85 82 77 
   2   0   0   0   0   0   0   0   0   0   0   0   0   0   0   0   0   0   0   0   0   0   0   0  10   0   5   0   0   0   0   6 97 84 82 81 80 78 
   7   0   0   0   0   0   0   0   0   3   0   0   5   0   0   0   0   0   0   0   0   0   4   0   0   8   0   0   0   0   0   6 88 85 84 81 80 76 
   7   0   0   0   0   4   6   0   0   0   0   0   0   0   0   0   9   0   0   6   0   0   0   0   6   0   0   0   0   0   0   6 98 93 88 87 79 77 
   2   4   0   0   0   0   0   0   6   6   0   0   6   0   0   0   0   4   0   0   0   4   0   0   0   0   0   0   0   0   3   3 79 78 63 
   7   0   0   0   0   0   0   0   8   0   0   0   5   0   0   0   0   0   0   0   0   0   0   0   0   9   0   0   0   0   0   4 94 85 78 76 
   6   0   0   0   5   0   0   0   0   0   0   0   0   0   0   0   0   0   0   0   7   0   0   6   0   0   0   6   0  10   0   3 80 76 69 
   6   5   0   0   0   0   0   0   7   0   0   0   0   0   0   5   0   0   0   0   0   0   0   0   0   0   0   0   0   6   0   3 96 87 86 
   4   0   0   0   0   0   0   0   0   0   0   0   0   0   0   0   0   0   0   0   0   0   0   0   0   0   0   0   0   0   7   2 77 71 
   3   0   0   0   0   7   0   0   0   0   0   0   0   0   0   0   0   0   0   0   0   0   0   0   0   0   0   0   0   0   0   2 77 76 
   3   0   0   0   0   0   0   0   0   0   5   0   0   0   0   0   0   0   0   0   0   0   0   3   0   0   0   0   0   0   0   2 83 77 
   4   0   0   0   0   0   7   0   0  10   0   0   2   0   0   0   9   0   0   0  10   0   6   0   0   0   0   0   8   0   0   2 88 77 
  10   0   7   0   0   0   0   9   0   0   0   0   0   0   0   0   0   0   0   0   0   0   0   0   0   0   0   0   0   0   0   2 84 76 
   8   0   0   0   0   0   6   9   0   0   0   9   0  10   0   0   5   0   0   0   0   4   0   0   0   0   0   0   0   3   6   2 84 82 
   2   0   0   0  10   0   0   0   0   0   0   0   0   6   0   0   0   0   5   0   0   0   0   4   0   6   0   0   0   0   4   2 91 84 
   7   0   0   0   0   0   0   0   0   0   0   0   0  10   0   0   7   0   0   4   0   0   0   0   0   0   0   0   0   0   0   1 78 
   5   0   0   0   0   4   0   5   0   0   0   0   7   0   0   0   0   0   0   0   0   0   0   0   3   0   4   7   0   5   0   1 82 
   1   6   0   6   0   0   8   8   0   0   0   0   0   0   0   0   0   0   0   8   0   0   0   0   0   0   0   0   0   0   0   1 76 
   4   0   0   0   0   0   0   0   0   0   0   0   0   0   0   0   3   0   0   0   0   0   0   0  10   0   0   0   4   0   0   1 76 
   3   0   0   0   0   0   0   0   0   9   0   0   0   0   0   0   0   0   0   0   0   0  10   0   0   0   0   0   0  10   0   1 79 
   3   0   0   0   0   0   0   0   0   0   0   0   0   0   0   0   0   0   0   3   0   0   0   0   4   0   0   0   0   0   0   1 85 
   3   0   0   0   0   0   0   0   0   0   0   7   0   0   6   0   0   0   0   0   0   0   9   0   5   0   0   0   9   0   0   1 89 
   2   0   0   0   0   0   0   0   0   0   0   0   0   4   0   0   0   0   0   0   0   0   0   0   0   0   0   0   0   0   0   1 102
   7   8   0   0   0   0   0   0   0   5   0   0   0   0   0   0   0   6   0   0   0   0   0   0   0   0   0   7   0   0   0   1 102
   4   0   0   0   0   9   0   4   0   0   0   0   0   0   0   0   0   6   0   0   0   0   6   0   0   0   0   0   0   0   0   1 102
   4   0   0   8   0   0   5   0   0   0   0   0   0   0   0  10   0   7   0   0   0   0   0   0   0   4   0   0   0   0   0   1 102
   6   0   6   0   0   0   0   0   0   0   0   0   0   0   0   0   0   0   0   0   0   0   0   0   5   0   0   0   0   0   0   1 102
  10   0   0   0   0   0   0   0   0   0   0   0  10   4   8   0   4   0   0   6   7   0   0   0   0   0   8   0   0   0   0   1 102
   2   0   0   8   5   0   0   0   0   0   0   0   0   0   0   0   0   0   0   0   0   0   0   0   0   0   0   0   0   0   7   1 102
   5   0   0   0   0   0   0   0   6   0   0   0   0   0   0   0   6   0   0   0   0   0   0   0   0   0   0   0   0   5   0   1 102
   1   0   0   0   4   5   0   0   0   0   0   0   0   0   0   0   0   0   0   0   0   0   0   0   0   0   8   0   0   0   0   1 102
   5   6   0   0   0   0   7   0   0   0   0   0   0   7   0   0   0   0   0   0   0   0   0   0   0   0   0   0   0   0   0   1 102
   6   0   0   0   0   0   0   0   0   0   0   6   0   8   0   0   0   0   0  10   0   6   0   0   2   0   0   0   0   0   0   1 102
   6  10   0   0   0   0   0   0   0   0   0   0   0   6   0   0   3   0   0   0   0   0   0   0   0   0   0   0   4   0   0   1 102
   4   0   0   0   0   8   0   0   0   0   0   0   0   0   0   0   0   0   0   0   0   0   0   8   0   0   0   0   0   0   0   1 102
   8   5   1  10   0   0  10   0   0   0   0   0   0   0   0   7   0   0   3   0   0   4   0   0   0   0   0   0   0   0   7   1 102
   6   0   0   0   6   0   0   0   0   0   0   0   0   0   0   0   0   0   0   0   0   0   6   8   9   0   0   0   0   0   0   1 102
   3   0   0   0   0   7   0   0   0   0   0   8   0   0   0   0   0   0   6   0   5   0   0   0   0   0   0   0  10   0   0   1 102
   9   0   0   7   2   0   8   0   0   0   0   0   0   0   5   9   0   0   0   0   0   0   0   0   0   0   0   0   0   0   0   1 102
  10   0   0   0   0   0   0   0   0   0   0   0   0   0   0   0   0   0   0   4   0   0   0   0   7   0   5   0   0   0   0   1 102
   4   0   0   0   7   0   0   0   0   0   0   0   0   0   0   4   7   0   0   0   0   0   0   0   0   9   0   6   0   0   0   1 102
   5   0   0   0   0   0   0   0   0   0   0   0   0   0   0   0   0   7   7   0   0   8   0   0   0   0   5   0   0   4   6   1 102
  10   0   0   0   0   0   0   3   0   0   0   0   6   0   0   4   0   0   0   0   0   0   0   0   0   0   0   0   0   0   0   1 102
   9   0   0   0   0   0   0   0   0   0   0   0   0   0   0   0   7   0   0   0   0   0   0   0   0   0   3   0   0   0   0   1 102
   4   0   0   7   8   0   0   0   0   0   0   0   0   0   0   0   0   0   0   7   0   0   0   0   8   0   0   0   0   0   0   1 102
   8   0   0   0   0   0   0   0   0   0   0   0   4   2   0   0   0   0   0   0   0   0   0   0   0   0   0   0   0   0   0   1 102
   7   0   0   5   0   0   0   0   0   0   0   0   0   0   0   0   0   8   0   0   0   0   0   4   7   0   0   0   0   0   0   1 102
   6   0   0   0   0   2   4   0   0   0   0   0   0   0   3   0   0   0   0   0   0   0   0   0   0   0   6  10   0   0   0   1 102
   0   0   0   0   0   0   0   0   0   0   0   0   0   0   0   0   0   0   0   0   0   0   0   0   0   0   0   0   0   0   0   0 
